c cksystemsgroup.github.io/unicorn
c CNF contains a total of 497 clauses.
c CNF contains a total of 120 variables.
c CNF clauses cover 1 bad states.
c Variable name mapping (17 names):
c   1: input[bit=0]
c   2: input[bit=0]
c   4: input[bit=1]
c   6: input[bit=1]
c   11: input[bit=2]
c   16: input[bit=2]
c   22: input[bit=3]
c   30: input[bit=3]
c   36: input[bit=4]
c   47: input[bit=4]
c   53: input[bit=5]
c   67: input[bit=5]
c   73: input[bit=6]
c   90: input[bit=6]
c   96: input[bit=7]
c   116: input[bit=7]
c   120: ?
p cnf 120 497
-1 -2 3 0
1 -3 0
2 -3 0
-4 -2 5 0
4 -5 0
2 -5 0
-1 -6 7 0
1 -7 0
6 -7 0
-8 0
5 7 8 -9 0
5 7 -8 9 0
5 -7 8 9 0
5 -7 -8 -9 0
-5 7 8 9 0
-5 7 -8 -9 0
-5 -7 8 -9 0
-5 -7 -8 9 0
-3 -9 10 0
3 -10 0
9 -10 0
-11 -2 12 0
11 -12 0
2 -12 0
-4 -6 13 0
4 -13 0
6 -13 0
5 7 -14 0
5 8 -14 0
-7 -8 14 0
7 8 -14 0
-5 -8 14 0
-5 -7 14 0
12 13 14 -15 0
12 13 -14 15 0
12 -13 14 15 0
12 -13 -14 -15 0
-12 13 14 15 0
-12 13 -14 -15 0
-12 -13 14 -15 0
-12 -13 -14 15 0
-1 -16 17 0
1 -17 0
16 -17 0
-18 0
15 17 18 -19 0
15 17 -18 19 0
15 -17 18 19 0
15 -17 -18 -19 0
-15 17 18 19 0
-15 17 -18 -19 0
-15 -17 18 -19 0
-15 -17 -18 19 0
-19 -20 0
19 20 0
-10 -20 21 0
10 -21 0
20 -21 0
-22 -2 23 0
22 -23 0
2 -23 0
-11 -6 24 0
11 -24 0
6 -24 0
12 13 -25 0
12 14 -25 0
-13 -14 25 0
13 14 -25 0
-12 -14 25 0
-12 -13 25 0
23 24 25 -26 0
23 24 -25 26 0
23 -24 25 26 0
23 -24 -25 -26 0
-23 24 25 26 0
-23 24 -25 -26 0
-23 -24 25 -26 0
-23 -24 -25 26 0
-4 -16 27 0
4 -27 0
16 -27 0
15 17 -28 0
15 18 -28 0
-17 -18 28 0
17 18 -28 0
-15 -18 28 0
-15 -17 28 0
26 27 28 -29 0
26 27 -28 29 0
26 -27 28 29 0
26 -27 -28 -29 0
-26 27 28 29 0
-26 27 -28 -29 0
-26 -27 28 -29 0
-26 -27 -28 29 0
-1 -30 31 0
1 -31 0
30 -31 0
-32 0
29 31 32 -33 0
29 31 -32 33 0
29 -31 32 33 0
29 -31 -32 -33 0
-29 31 32 33 0
-29 31 -32 -33 0
-29 -31 32 -33 0
-29 -31 -32 33 0
-33 -34 0
33 34 0
-21 -34 35 0
21 -35 0
34 -35 0
-36 -2 37 0
36 -37 0
2 -37 0
-22 -6 38 0
22 -38 0
6 -38 0
23 24 -39 0
23 25 -39 0
-24 -25 39 0
24 25 -39 0
-23 -25 39 0
-23 -24 39 0
37 38 39 -40 0
37 38 -39 40 0
37 -38 39 40 0
37 -38 -39 -40 0
-37 38 39 40 0
-37 38 -39 -40 0
-37 -38 39 -40 0
-37 -38 -39 40 0
-11 -16 41 0
11 -41 0
16 -41 0
26 27 -42 0
26 28 -42 0
-27 -28 42 0
27 28 -42 0
-26 -28 42 0
-26 -27 42 0
40 41 42 -43 0
40 41 -42 43 0
40 -41 42 43 0
40 -41 -42 -43 0
-40 41 42 43 0
-40 41 -42 -43 0
-40 -41 42 -43 0
-40 -41 -42 43 0
-4 -30 44 0
4 -44 0
30 -44 0
29 31 -45 0
29 32 -45 0
-31 -32 45 0
31 32 -45 0
-29 -32 45 0
-29 -31 45 0
43 44 45 -46 0
43 44 -45 46 0
43 -44 45 46 0
43 -44 -45 -46 0
-43 44 45 46 0
-43 44 -45 -46 0
-43 -44 45 -46 0
-43 -44 -45 46 0
-1 -47 48 0
1 -48 0
47 -48 0
-49 0
46 48 49 -50 0
46 48 -49 50 0
46 -48 49 50 0
46 -48 -49 -50 0
-46 48 49 50 0
-46 48 -49 -50 0
-46 -48 49 -50 0
-46 -48 -49 50 0
-50 -51 0
50 51 0
-35 -51 52 0
35 -52 0
51 -52 0
-53 -2 54 0
53 -54 0
2 -54 0
-36 -6 55 0
36 -55 0
6 -55 0
37 38 -56 0
37 39 -56 0
-38 -39 56 0
38 39 -56 0
-37 -39 56 0
-37 -38 56 0
54 55 56 -57 0
54 55 -56 57 0
54 -55 56 57 0
54 -55 -56 -57 0
-54 55 56 57 0
-54 55 -56 -57 0
-54 -55 56 -57 0
-54 -55 -56 57 0
-22 -16 58 0
22 -58 0
16 -58 0
40 41 -59 0
40 42 -59 0
-41 -42 59 0
41 42 -59 0
-40 -42 59 0
-40 -41 59 0
57 58 59 -60 0
57 58 -59 60 0
57 -58 59 60 0
57 -58 -59 -60 0
-57 58 59 60 0
-57 58 -59 -60 0
-57 -58 59 -60 0
-57 -58 -59 60 0
-11 -30 61 0
11 -61 0
30 -61 0
43 44 -62 0
43 45 -62 0
-44 -45 62 0
44 45 -62 0
-43 -45 62 0
-43 -44 62 0
60 61 62 -63 0
60 61 -62 63 0
60 -61 62 63 0
60 -61 -62 -63 0
-60 61 62 63 0
-60 61 -62 -63 0
-60 -61 62 -63 0
-60 -61 -62 63 0
-4 -47 64 0
4 -64 0
47 -64 0
46 48 -65 0
46 49 -65 0
-48 -49 65 0
48 49 -65 0
-46 -49 65 0
-46 -48 65 0
63 64 65 -66 0
63 64 -65 66 0
63 -64 65 66 0
63 -64 -65 -66 0
-63 64 65 66 0
-63 64 -65 -66 0
-63 -64 65 -66 0
-63 -64 -65 66 0
-1 -67 68 0
1 -68 0
67 -68 0
-69 0
66 68 69 -70 0
66 68 -69 70 0
66 -68 69 70 0
66 -68 -69 -70 0
-66 68 69 70 0
-66 68 -69 -70 0
-66 -68 69 -70 0
-66 -68 -69 70 0
-70 -71 0
70 71 0
-52 -71 72 0
52 -72 0
71 -72 0
-73 -2 74 0
73 -74 0
2 -74 0
-53 -6 75 0
53 -75 0
6 -75 0
54 55 -76 0
54 56 -76 0
-55 -56 76 0
55 56 -76 0
-54 -56 76 0
-54 -55 76 0
74 75 76 -77 0
74 75 -76 77 0
74 -75 76 77 0
74 -75 -76 -77 0
-74 75 76 77 0
-74 75 -76 -77 0
-74 -75 76 -77 0
-74 -75 -76 77 0
-36 -16 78 0
36 -78 0
16 -78 0
57 58 -79 0
57 59 -79 0
-58 -59 79 0
58 59 -79 0
-57 -59 79 0
-57 -58 79 0
77 78 79 -80 0
77 78 -79 80 0
77 -78 79 80 0
77 -78 -79 -80 0
-77 78 79 80 0
-77 78 -79 -80 0
-77 -78 79 -80 0
-77 -78 -79 80 0
-22 -30 81 0
22 -81 0
30 -81 0
60 61 -82 0
60 62 -82 0
-61 -62 82 0
61 62 -82 0
-60 -62 82 0
-60 -61 82 0
80 81 82 -83 0
80 81 -82 83 0
80 -81 82 83 0
80 -81 -82 -83 0
-80 81 82 83 0
-80 81 -82 -83 0
-80 -81 82 -83 0
-80 -81 -82 83 0
-11 -47 84 0
11 -84 0
47 -84 0
63 64 -85 0
63 65 -85 0
-64 -65 85 0
64 65 -85 0
-63 -65 85 0
-63 -64 85 0
83 84 85 -86 0
83 84 -85 86 0
83 -84 85 86 0
83 -84 -85 -86 0
-83 84 85 86 0
-83 84 -85 -86 0
-83 -84 85 -86 0
-83 -84 -85 86 0
-4 -67 87 0
4 -87 0
67 -87 0
66 68 -88 0
66 69 -88 0
-68 -69 88 0
68 69 -88 0
-66 -69 88 0
-66 -68 88 0
86 87 88 -89 0
86 87 -88 89 0
86 -87 88 89 0
86 -87 -88 -89 0
-86 87 88 89 0
-86 87 -88 -89 0
-86 -87 88 -89 0
-86 -87 -88 89 0
-1 -90 91 0
1 -91 0
90 -91 0
-92 0
89 91 92 -93 0
89 91 -92 93 0
89 -91 92 93 0
89 -91 -92 -93 0
-89 91 92 93 0
-89 91 -92 -93 0
-89 -91 92 -93 0
-89 -91 -92 93 0
-93 -94 0
93 94 0
-72 -94 95 0
72 -95 0
94 -95 0
-96 -2 97 0
96 -97 0
2 -97 0
-73 -6 98 0
73 -98 0
6 -98 0
74 75 -99 0
74 76 -99 0
-75 -76 99 0
75 76 -99 0
-74 -76 99 0
-74 -75 99 0
97 98 99 -100 0
97 98 -99 100 0
97 -98 99 100 0
97 -98 -99 -100 0
-97 98 99 100 0
-97 98 -99 -100 0
-97 -98 99 -100 0
-97 -98 -99 100 0
-53 -16 101 0
53 -101 0
16 -101 0
77 78 -102 0
77 79 -102 0
-78 -79 102 0
78 79 -102 0
-77 -79 102 0
-77 -78 102 0
100 101 102 -103 0
100 101 -102 103 0
100 -101 102 103 0
100 -101 -102 -103 0
-100 101 102 103 0
-100 101 -102 -103 0
-100 -101 102 -103 0
-100 -101 -102 103 0
-36 -30 104 0
36 -104 0
30 -104 0
80 81 -105 0
80 82 -105 0
-81 -82 105 0
81 82 -105 0
-80 -82 105 0
-80 -81 105 0
103 104 105 -106 0
103 104 -105 106 0
103 -104 105 106 0
103 -104 -105 -106 0
-103 104 105 106 0
-103 104 -105 -106 0
-103 -104 105 -106 0
-103 -104 -105 106 0
-22 -47 107 0
22 -107 0
47 -107 0
83 84 -108 0
83 85 -108 0
-84 -85 108 0
84 85 -108 0
-83 -85 108 0
-83 -84 108 0
106 107 108 -109 0
106 107 -108 109 0
106 -107 108 109 0
106 -107 -108 -109 0
-106 107 108 109 0
-106 107 -108 -109 0
-106 -107 108 -109 0
-106 -107 -108 109 0
-11 -67 110 0
11 -110 0
67 -110 0
86 87 -111 0
86 88 -111 0
-87 -88 111 0
87 88 -111 0
-86 -88 111 0
-86 -87 111 0
109 110 111 -112 0
109 110 -111 112 0
109 -110 111 112 0
109 -110 -111 -112 0
-109 110 111 112 0
-109 110 -111 -112 0
-109 -110 111 -112 0
-109 -110 -111 112 0
-4 -90 113 0
4 -113 0
90 -113 0
89 91 -114 0
89 92 -114 0
-91 -92 114 0
91 92 -114 0
-89 -92 114 0
-89 -91 114 0
112 113 114 -115 0
112 113 -114 115 0
112 -113 114 115 0
112 -113 -114 -115 0
-112 113 114 115 0
-112 113 -114 -115 0
-112 -113 114 -115 0
-112 -113 -114 115 0
-1 -116 117 0
1 -117 0
116 -117 0
-118 0
115 117 118 -119 0
115 117 -118 119 0
115 -117 118 119 0
115 -117 -118 -119 0
-115 117 118 119 0
-115 117 -118 -119 0
-115 -117 118 -119 0
-115 -117 -118 119 0
-95 -119 120 0
95 -120 0
119 -120 0
120 0
